sat
(:added-eqs                   1107
 :arith-eq-adapter            107
 :arith-bound-propagations-lp 6
 :arith-conflicts             4
 :arith-diseq                 69
 :arith-fixed-eqs             25
 :arith-lower                 140
 :arith-make-feasible         72
 :arith-max-columns           49
 :arith-max-rows              20
 :arith-offset-eqs            1
 :arith-upper                 42
 :binary-propagations         29
 :conflicts                   14
 :decisions                   139
 :del-clause                  587
 :final-checks                7
 :interface-eqs               4
 :max-memory                  18.68
 :memory                      17.55
 :minimized-lits              1
 :mk-bool-var                 1279
 :mk-clause                   909
 :mk-clause-binary            69
 :num-allocs                  233004
 :num-checks                  2
 :propagations                442
 :rlimit-count                8223
 :seq-add-axiom               151
 :seq-char2bit                28
 :seq-fixed-length            1
 :seq-length-coherence        5
 :seq-num-reductions          48
 :time                        0.01
 :total-time                  0.01)
